data;
param n:=50;
param w:=1 154 2 148 3 220 4 -133 5 -94 6 -94 7 142 8 -115 9 -118 10 82 11 -18 12 -147 13 -73 14 47 15 91 16 31 17 -168 18 106 19 59 20 -232 21 207 22 29 23 199 24 -105 25 99 26 -177 27 -26 28 -57 29 -59 30 19 31 144 32 46 33 98 34 -144 35 202 36 155 37 17 38 26 39 -73 40 -26 41 -272 42 123 43 -88 44 -205 45 100 46 18 47 -201 48 189 49 -243 50 117;
